(set-info :smt-lib-version 2.6)
(set-logic QF_LIA)
(set-info :category "industrial")
(set-info :status sat)
(declare-fun x0 () Int)
(declare-fun x1 () Int)
(declare-fun x10 () Int)
(declare-fun x11 () Int)
(declare-fun x12 () Int)
(declare-fun x13 () Int)
(declare-fun x14 () Int)
(declare-fun x15 () Int)
(declare-fun x16 () Int)
(declare-fun x17 () Int)
(declare-fun x18 () Int)
(declare-fun x19 () Int)
(declare-fun x2 () Int)
(declare-fun x20 () Int)
(declare-fun x21 () Int)
(declare-fun x22 () Int)
(declare-fun x23 () Int)
(declare-fun x24 () Int)
(declare-fun x25 () Int)
(declare-fun x26 () Int)
(declare-fun x27 () Int)
(declare-fun x28 () Int)
(declare-fun x29 () Int)
(declare-fun x3 () Int)
(declare-fun x30 () Int)
(declare-fun x31 () Int)
(declare-fun x32 () Int)
(declare-fun x33 () Int)
(declare-fun x34 () Int)
(declare-fun x4 () Int)
(declare-fun x5 () Int)
(declare-fun x6 () Int)
(declare-fun x7 () Int)
(declare-fun x8 () Int)
(declare-fun x9 () Int)
(assert (let ((?v_0 (* 0 x1)) (?v_1 (* 0 x14)) (?v_22 (* 0 x2)) (?v_39 (* 1 x11)) (?v_55 (* 0 x12)) (?v_25 (* 0 x26)) (?v_15 (* 0 x30)) (?v_51 (* 0 x31)) (?v_32 (* 1 x18)) (?v_99 (* 1 x20)) (?v_52 (* 1 x22)) (?v_4 (* 1 x23)) (?v_6 (* 0 x34)) (?v_7 (* 0 x4)) (?v_8 (* 1 x6)) (?v_37 (* 1 x8))) (let ((?v_116 (+ ?v_8 ?v_37)) (?v_10 (* 1 x14)) (?v_83 (* 0 x16)) (?v_3 (* 0 x18)) (?v_11 (* 0 x21)) (?v_62 (* 1 x25)) (?v_61 (* 0 x28)) (?v_17 (* 0 x5)) (?v_100 (* 1 x26)) (?v_27 (* 0 x3)) (?v_73 (* 1 x30)) (?v_16 (* 0 x32)) (?v_33 (* 0 x27)) (?v_36 (* 1 x4)) (?v_28 (* 0 x6)) (?v_78 (* 1 x9)) (?v_65 (* 0 x0)) (?v_9 (* 0 x11)) (?v_30 (* 1 x12)) (?v_48 (* 1 x1)) (?v_49 (* 0 x13)) (?v_50 (* 0 x19)) (?v_23 (* 0 x22)) (?v_13 (* 0 x25)) (?v_43 (* 1 x29)) (?v_53 (* 1 x3)) (?v_77 (* 1 x32)) (?v_18 (* 0 x9))) (let ((?v_107 (+ ?v_18 ?v_8)) (?v_69 (* 0 x10)) (?v_24 (* 0 x24)) (?v_29 (* 0 x7)) (?v_92 (* 1 x19)) (?v_60 (* 0 x20)) (?v_56 (* 1 x21)) (?v_57 (* 0 x23)) (?v_34 (* 1 x28)) (?v_35 (* 0 x29)) (?v_58 (* 1 x5)) (?v_89 (* 1 x0)) (?v_59 (* 1 x10)) (?v_106 (* 1 x17)) (?v_97 (* 1 x13)) (?v_67 (* 1 x15)) (?v_98 (* 1 x2)) (?v_81 (* 2 x28)) (?v_64 (* 0 x33)) (?v_68 (* 1 x34)) (?v_86 (* 0 x15)) (?v_80 (* 1 x24)) (?v_111 (* 2 x29)) (?v_74 (* 1 x31))) (let ((?v_109 (+ ?v_18 ?v_68)) (?v_112 (* 2 x3)) (?v_88 (* 0 x17)) (?v_85 (* 1 x27)) (?v_103 (* 1 x7)) (?v_102 (* 0 x8)) (?v_104 (+ ?v_37 ?v_78))) (let ((?v_114 (+ ?v_85 ?v_58)) (?v_108 (* 1 x33)) (?v_110 (+ ?v_36 ?v_104)) (?v_117 (* 2 x22)) (?v_115 (* 1 x16)) (?v_42 (* (- 1) x28)) (?v_90 (* (- 1) x29)) (?v_2 (* (- 1) x7)) (?v_96 (* (- 1) x9)) (?v_20 (* (- 1) x15)) (?v_31 (* (- 1) x20)) (?v_12 (* (- 1) x22)) (?v_46 (* (- 1) x8)) (?v_5 (* (- 2) x33)) (?v_41 (* (- 1) x24)) (?v_14 (* (- 1) x26)) (?v_44 (* (- 1) x30)) (?v_45 (* (- 1) x31)) (?v_101 (* (- 1) x12)) (?v_19 (* (- 1) x13)) (?v_21 (* (- 1) x17)) (?v_26 (* (- 1) x27)) (?v_95 (* (- 1) x3)) (?v_38 (* (- 1) x0)) (?v_47 (* (- 1) x11)) (?v_66 (* (- 1) x14)) (?v_70 (* (- 1) x18)) (?v_63 (* (- 1) x32)) (?v_118 (* (- 1) x34)) (?v_40 (* (- 1) x16)) (?v_72 (* (- 1) x21)) (?v_54 (* (- 1) x33)) (?v_82 (* (- 2) x12)) (?v_79 (* (- 1) x25)) (?v_76 (* (- 1) x10)) (?v_75 (* (- 1) x4)) (?v_71 (* (- 1) x2)) (?v_87 (* (- 1) x19)) (?v_105 (* (- 1) x1)) (?v_93 (* (- 1) x23)) (?v_84 (* (- 1) x5)) (?v_94 (* (- 2) x34)) (?v_91 (* (- 1) x6)) (?v_113 (* (- 2) x30))) (and (<= (+ ?v_42 (+ ?v_90 (+ ?v_2 (+ ?v_96 (+ ?v_0 (+ ?v_1 (+ ?v_22 (+ ?v_39 (+ ?v_55 (+ ?v_25 (+ ?v_15 (+ ?v_51 (+ ?v_32 (+ ?v_99 (+ ?v_52 (+ ?v_4 (+ (* (- 2) x32) (+ ?v_6 (+ ?v_7 ?v_116))))))))))))))))))) 1) (<= (+ ?v_0 (+ ?v_10 (+ ?v_20 (+ ?v_31 (+ ?v_12 (+ ?v_46 (+ ?v_83 (+ ?v_3 (+ ?v_11 (+ ?v_62 (+ ?v_61 (+ ?v_17 (+ ?v_100 (+ ?v_27 (+ ?v_73 (+ ?v_16 (+ ?v_5 (+ ?v_33 (+ ?v_36 (+ ?v_28 ?v_78)))))))))))))))))))) (- 1)) (<= (+ ?v_65 (+ ?v_9 (+ ?v_1 (+ ?v_30 (+ (* (- 2) x20) (+ ?v_41 (+ ?v_14 (+ ?v_44 (+ ?v_45 (+ ?v_2 (+ ?v_48 (+ ?v_49 (+ ?v_3 (+ ?v_50 (+ ?v_23 (+ ?v_13 (+ ?v_4 (+ ?v_43 (+ ?v_53 (+ ?v_77 (+ ?v_5 (+ ?v_6 (+ ?v_7 ?v_107))))))))))))))))))))))) 0) (<= (+ ?v_69 (+ ?v_9 (+ ?v_101 (+ ?v_19 (+ ?v_10 (+ (* (- 2) x15) (+ ?v_21 (+ ?v_11 (+ (* (- 2) x6) (+ ?v_12 (+ ?v_24 (+ ?v_13 (+ ?v_14 (+ ?v_5 (+ ?v_26 (+ ?v_95 (+ ?v_15 (+ ?v_16 (+ ?v_6 (+ ?v_7 (+ ?v_17 (+ ?v_29 ?v_18)))))))))))))))))))))) 1) (<= (+ ?v_38 (+ ?v_47 (+ ?v_19 (+ ?v_66 (+ ?v_20 (+ ?v_21 (+ ?v_70 (+ ?v_22 (+ ?v_92 (+ ?v_60 (+ ?v_56 (+ ?v_23 (+ ?v_57 (+ ?v_24 (+ ?v_25 (+ ?v_5 (+ ?v_26 (+ ?v_34 (+ ?v_35 (+ ?v_27 (+ ?v_63 (+ ?v_118 (+ ?v_58 (+ ?v_28 ?v_29)))))))))))))))))))))))) 0) (<= (+ ?v_89 (+ ?v_0 (+ ?v_59 (+ ?v_9 (+ ?v_30 (+ ?v_19 (+ ?v_10 (+ ?v_40 (+ ?v_106 (+ ?v_31 (+ ?v_72 (+ ?v_4 (+ ?v_24 (+ ?v_32 (+ ?v_33 (+ ?v_34 (+ ?v_35 (+ ?v_27 (+ ?v_6 (+ ?v_17 (+ ?v_18 (+ ?v_36 ?v_37)))))))))))))))))))))) 1) (<= (+ ?v_38 (+ ?v_0 (+ (* 2 x10) (+ ?v_39 (+ ?v_30 (+ ?v_97 (+ ?v_40 (+ ?v_21 (+ ?v_11 (+ ?v_4 (+ ?v_41 (+ ?v_14 (+ ?v_42 (+ ?v_43 (+ ?v_44 (+ ?v_45 (+ ?v_16 (+ ?v_54 (+ ?v_2 (+ ?v_46 (+ ?v_6 (+ ?v_7 ?v_18)))))))))))))))))))))) 0) (<= (+ ?v_38 (+ ?v_47 (+ ?v_82 (+ ?v_48 (+ ?v_49 (+ ?v_1 (+ ?v_67 (+ ?v_40 (+ ?v_50 (+ ?v_31 (+ ?v_41 (+ ?v_79 (+ ?v_42 (+ ?v_46 (+ ?v_51 (+ ?v_7 (+ ?v_17 (+ ?v_29 (+ ?v_52 (+ ?v_53 (+ (* 2 x30) (+ ?v_16 (+ ?v_54 (+ ?v_6 ?v_28)))))))))))))))))))))))) 0) (<= (+ ?v_76 (+ ?v_39 (+ (* (- 2) x31) (+ ?v_55 (+ ?v_49 (+ ?v_3 (+ ?v_98 (+ ?v_56 (+ ?v_12 (+ ?v_57 (+ ?v_41 (+ ?v_26 (+ ?v_81 (+ ?v_35 (+ ?v_7 (+ ?v_29 (+ ?v_53 (+ ?v_15 (+ ?v_64 (+ ?v_28 (+ ?v_68 (+ ?v_58 ?v_37)))))))))))))))))))))) 0) (<= (+ ?v_38 (+ ?v_59 (+ ?v_1 (+ ?v_75 (+ ?v_46 (+ ?v_86 (+ ?v_50 (+ ?v_22 (+ ?v_60 (+ ?v_25 (+ ?v_61 (+ ?v_27 (+ ?v_51 (+ ?v_29 (+ ?v_32 (+ ?v_56 (+ ?v_4 (+ ?v_80 (+ ?v_62 (+ ?v_26 (+ ?v_43 (+ ?v_63 (+ ?v_64 ?v_8))))))))))))))))))))))) 0) (<= (+ ?v_65 (+ ?v_66 (+ ?v_21 (+ ?v_71 (+ ?v_2 (+ (* 2 x11) (+ ?v_30 (+ ?v_87 (+ ?v_49 (+ ?v_11 (+ ?v_23 (+ ?v_57 (+ ?v_24 (+ ?v_67 (+ (* 2 x25) (+ ?v_111 (+ ?v_74 (+ ?v_63 (+ ?v_7 (+ (* 2 x5) ?v_109)))))))))))))))))))) 0) (<= (+ ?v_65 (+ ?v_0 (+ ?v_69 (+ ?v_49 (+ ?v_20 (+ ?v_70 (+ ?v_71 (+ ?v_50 (+ ?v_72 (+ ?v_57 (+ ?v_25 (+ ?v_35 (+ ?v_52 (+ ?v_112 (+ ?v_73 (+ ?v_74 (+ ?v_63 (+ (* 2 x16) (+ ?v_54 (+ ?v_75 (+ ?v_33 (+ ?v_6 (+ ?v_17 ?v_29))))))))))))))))))))))) 0) (<= (+ ?v_38 (+ ?v_105 (+ ?v_76 (+ ?v_66 (+ ?v_55 (+ ?v_70 (+ ?v_44 (+ ?v_49 (+ ?v_22 (+ ?v_11 (+ ?v_25 (+ ?v_35 (+ ?v_27 (+ ?v_51 (+ ?v_7 (+ ?v_28 (+ ?v_67 (+ ?v_54 (+ ?v_33 (+ ?v_34 (+ ?v_77 (+ ?v_6 ?v_78)))))))))))))))))))))) (- 1)) (<= (+ ?v_0 (+ ?v_55 (+ ?v_19 (+ ?v_1 (+ ?v_20 (+ ?v_88 (+ ?v_70 (+ ?v_93 (+ ?v_79 (+ ?v_84 (+ ?v_50 (+ ?v_60 (+ ?v_23 (+ ?v_80 (+ ?v_25 (+ ?v_81 (+ ?v_43 (+ ?v_77 (+ ?v_54 (+ ?v_6 (+ ?v_85 ?v_37))))))))))))))))))))) (- 1)) (<= (+ ?v_39 (+ ?v_82 (+ ?v_72 (+ ?v_49 (+ ?v_1 (+ ?v_22 (+ ?v_32 (+ ?v_12 (+ ?v_24 (+ ?v_13 (+ ?v_25 (+ ?v_34 (+ ?v_27 (+ ?v_63 (+ ?v_94 (+ ?v_83 (+ ?v_54 (+ ?v_84 (+ ?v_46 (+ ?v_85 ?v_103)))))))))))))))))))) 0) (<= (+ ?v_76 (+ ?v_21 (+ ?v_39 (+ ?v_55 (+ ?v_10 (+ ?v_72 (+ (* (- 2) x24) (+ ?v_48 (+ ?v_86 (+ ?v_3 (+ ?v_22 (+ ?v_4 (+ ?v_25 (+ ?v_61 (+ ?v_43 (+ ?v_27 (+ ?v_15 (+ ?v_28 (+ ?v_29 (+ ?v_102 (+ ?v_52 (+ ?v_74 ?v_64)))))))))))))))))))))) 0) (<= (+ ?v_76 (+ ?v_39 (+ ?v_10 (+ ?v_87 (+ ?v_91 (+ ?v_46 (+ ?v_86 (+ ?v_88 (+ ?v_22 (+ ?v_60 (+ ?v_23 (+ ?v_57 (+ ?v_24 (+ ?v_13 (+ ?v_25 (+ ?v_34 (+ ?v_43 (+ ?v_51 (+ ?v_53 (+ ?v_54 ?v_36)))))))))))))))))))) 1) (<= (+ ?v_89 (+ (* (- 2) x1) (+ ?v_42 (+ ?v_59 (+ ?v_90 (+ ?v_39 (+ ?v_55 (+ ?v_113 (+ ?v_91 (+ ?v_49 (+ ?v_86 (+ ?v_83 (+ ?v_3 (+ ?v_92 (+ ?v_11 (+ ?v_57 (+ ?v_24 (+ ?v_25 (+ ?v_51 (+ ?v_16 (+ ?v_17 ?v_104))))))))))))))))))))) (- 1)) (<= (+ ?v_38 (+ ?v_47 (+ ?v_0 (+ ?v_59 (+ ?v_10 (+ ?v_70 (+ ?v_93 (+ ?v_75 (+ ?v_49 (+ ?v_86 (+ ?v_94 (+ ?v_83 (+ ?v_88 (+ ?v_92 (+ ?v_60 (+ ?v_11 (+ ?v_23 (+ ?v_24 (+ ?v_25 (+ ?v_61 (+ ?v_17 (+ ?v_85 (+ ?v_43 ?v_37))))))))))))))))))))))) (- 1)) (<= (+ ?v_38 (+ ?v_55 (+ ?v_1 (+ ?v_95 (+ ?v_2 (+ ?v_96 (+ ?v_97 (+ ?v_83 (+ ?v_50 (+ ?v_13 (+ ?v_98 (+ ?v_7 (+ ?v_99 (+ ?v_15 (+ ?v_52 (+ ?v_100 (+ (* 3 x31) (+ ?v_16 (+ ?v_28 ?v_114))))))))))))))))))) 1) (<= (+ ?v_76 (+ ?v_101 (+ ?v_48 (+ ?v_10 (+ ?v_20 (+ ?v_70 (+ ?v_12 (+ ?v_93 (+ ?v_96 (+ ?v_83 (+ ?v_92 (+ ?v_98 (+ ?v_99 (+ ?v_56 (+ ?v_15 (+ ?v_51 (+ ?v_7 (+ ?v_102 (+ ?v_77 (+ ?v_108 (+ ?v_68 (+ ?v_58 ?v_103)))))))))))))))))))))) 0) (<= (+ (* (- 2) x2) (+ ?v_76 (+ ?v_66 (+ ?v_0 (+ ?v_9 (+ ?v_55 (+ ?v_49 (+ ?v_20 (+ ?v_21 (+ ?v_72 (+ ?v_12 (+ ?v_93 (+ ?v_83 (+ ?v_24 (+ ?v_25 (+ ?v_26 (* 2 x9))))))))))))))))) 0) (<= (+ ?v_76 (+ (* (- 3) x14) (+ (* (- 2) x9) (+ ?v_70 (+ ?v_49 (+ ?v_67 (+ ?v_83 (+ ?v_60 (+ ?v_56 (+ ?v_23 (+ ?v_62 (+ ?v_26 (+ ?v_90 (+ ?v_95 (+ ?v_75 (+ ?v_16 (+ ?v_6 (+ ?v_17 (+ ?v_102 ?v_8))))))))))))))))))) (- 1)) (<= (+ ?v_69 (+ (* (- 2) x11) (+ (* (- 2) x22) (+ ?v_20 (+ ?v_14 (+ ?v_84 (+ ?v_83 (+ (* 2 x17) (+ ?v_50 (+ ?v_35 (+ ?v_51 (+ ?v_29 (+ ?v_32 (+ ?v_98 (+ ?v_99 (+ (* 2 x23) (+ ?v_80 (+ ?v_62 (+ ?v_53 (+ ?v_16 (+ ?v_54 ?v_110))))))))))))))))))))) (- 1)) (<= (+ ?v_105 (+ ?v_69 (+ ?v_1 (+ ?v_106 (+ ?v_93 (+ ?v_30 (+ ?v_14 (+ ?v_95 (+ ?v_45 (+ ?v_96 (+ ?v_86 (+ ?v_60 (+ ?v_11 (+ ?v_24 (+ ?v_32 (+ ?v_33 (+ ?v_61 (+ ?v_35 (+ ?v_15 (+ ?v_7 (+ ?v_58 (+ ?v_29 (+ ?v_102 (* 2 x32)))))))))))))))))))))))) (- 1)) (<= (+ ?v_65 (+ ?v_69 (+ ?v_9 (+ ?v_101 (+ ?v_72 (+ ?v_90 (+ ?v_46 (+ ?v_49 (+ ?v_1 (+ (* 2 x2) (+ ?v_60 (+ ?v_23 (+ ?v_57 (+ ?v_13 (+ ?v_33 (+ ?v_61 (+ ?v_51 (+ ?v_6 (+ ?v_29 ?v_107))))))))))))))))))) 0) (<= (+ ?v_65 (+ ?v_47 (+ ?v_79 (+ ?v_42 (+ ?v_90 (+ ?v_84 (+ ?v_1 (+ ?v_88 (+ ?v_22 (+ ?v_45 (+ ?v_30 (+ ?v_50 (+ ?v_99 (+ ?v_72 (+ ?v_80 (+ ?v_14 (+ ?v_95 (+ ?v_117 (+ ?v_63 (+ ?v_33 (+ ?v_64 (+ ?v_6 ?v_102)))))))))))))))))))))) 0) (<= (+ ?v_38 (+ ?v_59 (+ ?v_9 (+ ?v_101 (+ (* (- 2) x13) (+ ?v_66 (+ ?v_71 (+ ?v_31 (+ ?v_46 (+ ?v_96 (+ ?v_86 (+ ?v_106 (+ ?v_3 (+ ?v_11 (+ ?v_13 (+ ?v_25 (+ ?v_52 (+ ?v_33 (+ ?v_61 (+ ?v_35 (+ ?v_27 (+ ?v_16 (+ ?v_6 (+ ?v_108 (+ ?v_8 ?v_103))))))))))))))))))))))))) 1) (<= (+ ?v_65 (+ ?v_47 (+ ?v_87 (+ ?v_71 (+ ?v_93 (+ ?v_41 (+ ?v_84 (+ ?v_0 (+ ?v_1 (+ ?v_88 (+ ?v_13 (+ ?v_61 (+ ?v_30 (+ ?v_60 (+ ?v_97 (+ ?v_56 (+ ?v_33 (+ ?v_43 (+ ?v_15 (+ ?v_77 (+ ?v_36 ?v_78))))))))))))))))))))) 1) (<= (+ ?v_59 (+ (* (- 2) x14) (+ ?v_21 (+ ?v_42 (+ ?v_9 (+ ?v_30 (+ ?v_72 (+ ?v_14 (+ ?v_49 (+ ?v_86 (+ ?v_40 (+ ?v_50 (+ ?v_22 (+ ?v_57 (+ ?v_99 (+ ?v_24 (+ ?v_33 (+ ?v_27 (+ ?v_15 (+ ?v_16 (+ ?v_64 (+ ?v_7 ?v_109)))))))))))))))))))))) (- 1)) (<= (+ ?v_38 (+ ?v_19 (+ ?v_1 (+ ?v_106 (+ ?v_3 (+ ?v_50 (+ ?v_60 (+ ?v_11 (+ ?v_24 (+ ?v_13 (+ ?v_67 (+ ?v_40 (+ ?v_100 (+ ?v_33 (+ ?v_61 (+ ?v_27 (+ ?v_15 (+ ?v_6 (+ ?v_17 (+ ?v_28 (+ ?v_29 ?v_108))))))))))))))))))))) 0) (<= (+ ?v_65 (+ ?v_2 (+ ?v_69 (+ ?v_55 (+ ?v_91 (+ ?v_3 (+ ?v_11 (+ ?v_15 (+ ?v_67 (+ ?v_106 (+ ?v_98 (+ ?v_99 (+ ?v_52 (+ ?v_4 (+ ?v_34 (+ ?v_43 (+ ?v_53 (+ ?v_74 (+ ?v_16 (+ ?v_6 ?v_110)))))))))))))))))))) (- 1)) (<= (+ ?v_76 (+ (* (- 2) x17) (+ ?v_71 (+ ?v_9 (+ ?v_13 (+ ?v_61 (+ ?v_45 (+ ?v_17 (+ ?v_30 (+ ?v_111 (+ ?v_75 (+ ?v_91 (+ ?v_86 (+ ?v_3 (+ ?v_60 (+ ?v_23 (+ ?v_57 (+ ?v_102 (+ ?v_18 (+ ?v_112 (+ ?v_15 (+ ?v_16 ?v_115)))))))))))))))))))))) (- 1)) (<= (+ ?v_113 (+ ?v_105 (+ ?v_30 (+ ?v_97 (+ ?v_67 (+ ?v_40 (+ ?v_31 (+ ?v_32 (+ (* 2 x19) (+ ?v_56 (+ ?v_23 (+ ?v_24 (+ ?v_25 (+ ?v_51 (+ ?v_7 (+ ?v_53 (+ ?v_63 (+ ?v_64 (+ ?v_6 (+ ?v_28 ?v_85)))))))))))))))))))) 1) (<= (+ ?v_38 (+ (* (- 2) x25) (+ ?v_47 (+ ?v_101 (+ ?v_66 (+ ?v_95 (+ ?v_91 (+ ?v_46 (+ ?v_0 (+ ?v_59 (+ ?v_86 (+ ?v_88 (+ ?v_99 (+ ?v_11 (+ ?v_23 (+ ?v_24 (+ ?v_35 (+ ?v_100 (+ ?v_34 (+ ?v_16 (+ ?v_64 ?v_114))))))))))))))))))))) 0) (<= (+ ?v_87 (+ ?v_60 (+ ?v_14 (+ ?v_44 (+ ?v_46 (+ ?v_28 (+ ?v_48 (+ ?v_59 (+ ?v_39 (+ ?v_86 (+ ?v_115 (+ ?v_106 (+ (* 2 x18) (+ ?v_52 (+ ?v_62 (+ ?v_58 (+ ?v_78 (+ ?v_112 ?v_77)))))))))))))))))) 0) (<= (+ ?v_69 (+ ?v_47 (+ ?v_19 (+ ?v_21 (+ ?v_1 (+ ?v_70 (+ ?v_72 (+ ?v_90 (+ ?v_46 (+ ?v_86 (+ ?v_57 (+ ?v_24 (+ ?v_27 (+ ?v_15 (+ ?v_51 (+ ?v_6 (+ ?v_7 (+ ?v_29 (+ ?v_18 (+ ?v_115 ?v_85)))))))))))))))))))) (- 1)) (<= (+ ?v_89 (+ ?v_96 (+ ?v_69 (+ ?v_1 (+ ?v_22 (+ ?v_13 (+ ?v_61 (+ ?v_27 (+ ?v_91 (+ ?v_15 (+ ?v_17 (+ ?v_29 (+ ?v_48 (+ ?v_67 (+ ?v_6 (+ ?v_115 (+ ?v_106 (+ ?v_4 (+ ?v_100 (+ ?v_85 (+ ?v_77 ?v_36))))))))))))))))))))) (- 1)) (<= (+ (* 2 x0) (+ ?v_39 (+ ?v_101 (+ ?v_1 (+ ?v_97 (+ ?v_40 (+ ?v_88 (+ ?v_31 (+ ?v_72 (+ ?v_3 (+ ?v_12 (+ ?v_93 (+ ?v_61 (+ ?v_35 (+ ?v_80 (+ ?v_95 (+ ?v_7 (+ ?v_29 (+ ?v_85 (+ ?v_108 ?v_116)))))))))))))))))))) (- 1)) (<= (+ ?v_101 (+ ?v_0 (+ ?v_1 (+ ?v_39 (+ ?v_97 (+ (* 2 x15) (+ ?v_40 (+ ?v_70 (+ ?v_22 (+ ?v_72 (+ ?v_93 (+ ?v_79 (+ ?v_96 (+ ?v_25 (+ ?v_34 (+ ?v_35 (+ ?v_51 (+ ?v_7 (+ ?v_29 (+ ?v_117 (+ ?v_118 (+ ?v_85 (+ ?v_73 ?v_108))))))))))))))))))))))) (- 1)))))))))
(check-sat)
(exit)
